861,406
829,429
718,520
387,555
317,670
524,891
681,946
536,511
385,360
521,325
618,469
764,662
751,850
681,496
593,285
491,216
523,188
586,219
802,494
918,443
1020,652
838,891
765,939
829,554
850,529
893,194
782,93
441,284
396,314
504,378
567,369
436,887
947,213
1001,243
1135,637
681,-44
838,-79
